mixintcount/benchmarks/random_v2l/4_4_39.in
16 6
#	x1	x2	x3	x4;		0 = Real; 1 = Integer
	1	1	1	1
1	5	8	1	-1	36
1	4	10	3	-9	-15
1	-6	-4	2	-2	35
1	-8	-9	-2	1	8
1	-8	-1	3	2	37
1	-5	1	-8	10	5
1	9	4	-2	-1	34
1	-2	-10	9	9	13
1	1	0	0	0	39
1	-1	0	0	0	39
1	0	1	0	0	39
1	0	-1	0	0	39
1	0	0	1	0	39
1	0	0	-1	0	39
1	0	0	0	1	39
1	0	0	0	-1	39
